13 -36 11 0
-13 -37 -38 0
-37 -38 0
d -13 -37 -38 0
-9 -13 0
d -9 -14 -13 0
-38 0
11 0
-13 0
8 0
18 0
33 0
-14 0
-35 0
-6 0
19 0
20 0
7 0
9 0
12 0
32 0
29 0
30 0
1 0
-34 0
-36 0
-17 0
-2 0
-3 0
-4 0
-23 0
-24 0
-25 0
-28 0
-27 0
-15 0
-5 0
-16 0
0
